166
148
351
78
464
64
299
431
745
19
54
642
471
285
488
225
95
626
469
201
339
149
26
256
660
553
377
147
111
63
340
308
836
562
98
417
14
97
703
32
620
158
108
291
215
462
454
243
174
117
476
204
57
161
586
177
92
355
763
368
167
483
325
12
485
331
484
30
361
16
362
684
100
254
191
509
16
194
79
175
101
229
367
647
14
314
650
162
228
110
0
453
229
86
330
50
161
186
908
86
